50
13142

35 905
596 962
235 379
767 535
462 718
178 244
7 276
100 925
477 969
543 731
951 281
879 908
656 365
746 9
681 175
500 847
746 849
270 502
584 348
937 7
89 786
117 900
106 10
451 575
948 899
590 616
558 717
188 559
851 114
965 877
183 187
525 712
90 458
890 377
995 916
27 395
595 833
361 666
322 191
468 806
895 896
716 299
317 660
35 759
812 612
208 354
22 981
695 192
285 539
441 689
